tsp_instances/TSP50/instance104.tsp
NODE_COORD_SECTION
0 172 91
1 111 178
2 27 112
3 146 196
4 47 179
5 51 38
6 40 8
7 121 183
8 97 94
9 8 9
10 186 76
11 105 84
12 10 94
13 148 139
14 188 6
15 134 171
16 132 31
17 43 79
18 0 97
19 122 26
20 157 57
21 172 166
22 153 130
23 180 160
24 22 28
25 105 14
26 48 0
27 9 156
28 82 155
29 177 37
30 101 104
31 60 59
32 181 102
33 84 43
34 31 152
35 24 93
36 155 181
37 199 115
38 82 123
39 8 47
40 8 119
41 29 171
42 134 184
43 194 160
44 176 67
45 106 56
46 116 148
47 40 147
48 200 174
49 4 88
