tsp_instances/TSP50/instance104.opt.tour
TOUR_SECTION
1
11
45
21
30
15
17
20
26
46
34
32
6
27
7
10
25
40
18
36
13
50
19
41
3
48
35
28
42
5
29
39
31
9
12
23
14
47
2
8
16
43
4
37
22
24
49
44
38
33
-1